\ This file has been generated by DOcplex
\ ENCODING=ISO-8859-1
\Problem name: random_problem.lp

Minimize
 obj: 10 x0 + 84 x1 + 92 x2 + 98 x3 + 22 x4 + 89 x5 + 50 x6 + 57 x7
Subject To
 c0: x0 + x2 + x6 + x7 = 1
 c1: x1 + x2 + x3 + x4 + x5 + x6 = 1

Bounds
 0 <= x0 <= 1
 0 <= x1 <= 1
 0 <= x2 <= 1
 0 <= x3 <= 1
 0 <= x4 <= 1
 0 <= x5 <= 1
 0 <= x6 <= 1
 0 <= x7 <= 1

Binaries
 x0 x1 x2 x3 x4 x5 x6 x7
End
